(set-info :source |printed by MathSAT|)
(declare-fun bump () Bool)
(declare-fun _OK_ () Bool)
(declare-fun call_voiture.flby5 () Int)
(declare-fun call_voiture.stop.next () Bool)
(declare-fun call_voiture.second () Bool)
(declare-fun call_Sofar.flby.next () Bool)
(declare-fun call_voiture.meter () Bool)
(declare-fun move.next () Bool)
(declare-fun call_voiture.move () Bool)
(declare-fun call_voiture.dist () Int)
(declare-fun call_voiture.toofast.next () Bool)
(declare-fun call_voiture.ite2 () Int)
(declare-fun call_voiture.flby.next () Bool)
(declare-fun call_voiture.stop () Bool)
(declare-fun call_voiture.ite3.next () Int)
(declare-fun dist.next () Int)
(declare-fun call_voiture.ite2.next () Int)
(declare-fun env () Bool)
(declare-fun bump.next () Bool)
(declare-fun call_voiture.flby2.next () Bool)
(declare-fun call_excludes2.excludes.next () Bool)
(declare-fun call_voiture.flby6.next () Int)
(declare-fun call_voiture.time () Int)
(declare-fun call_voiture.move.next () Bool)
(declare-fun move () Bool)
(declare-fun call_voiture.flby4 () Int)
(declare-fun speed.next () Int)
(declare-fun call_voiture.flby5.next () Int)
(declare-fun call_Sofar.Sofar () Bool)
(declare-fun call_voiture.bump.next () Bool)
(declare-fun call_voiture.bump () Bool)
(declare-fun call_Sofar.flby () Bool)
(declare-fun call_voiture.speed.next () Int)
(declare-fun meter () Bool)
(declare-fun param_m.next () Bool)
(declare-fun stop.next () Bool)
(declare-fun call_voiture.meter.next () Bool)
(declare-fun call_Sofar.Sofar.next () Bool)
(declare-fun call_voiture.second.next () Bool)
(declare-fun param_s () Bool)
(declare-fun time () Int)
(declare-fun call_voiture.toofast () Bool)
(declare-fun param_s.next () Bool)
(declare-fun call_voiture.ite3 () Int)
(declare-fun call_voiture.time.next () Int)
(declare-fun call_voiture.flby2 () Bool)
(declare-fun call_voiture.flby3.next () Bool)
(declare-fun call_voiture.ite.next () Int)
(declare-fun param_m () Bool)
(declare-fun speed () Int)
(declare-fun dist () Int)
(declare-fun time.next () Int)
(declare-fun call_voiture.flby6 () Int)
(declare-fun meter.next () Bool)
(declare-fun toofast.next () Bool)
(declare-fun call_voiture.flby3 () Bool)
(declare-fun call_voiture.flby () Bool)
(declare-fun call_voiture.flby4.next () Int)
(declare-fun call_voiture.ite4.next () Int)
(declare-fun env.next () Bool)
(declare-fun _OK_.next () Bool)
(declare-fun stop () Bool)
(declare-fun call_excludes2.excludes () Bool)
(declare-fun call_voiture.dist.next () Int)
(declare-fun call_voiture.speed () Int)
(declare-fun second.next () Bool)
(declare-fun second () Bool)
(declare-fun toofast () Bool)
(define-fun .def_529 () Bool (= call_Sofar.flby.next call_Sofar.Sofar.next))
(define-fun .def_525 () Bool (and param_s.next param_m.next))
(define-fun .def_526 () Bool (not .def_525))
(define-fun .def_527 () Bool (= call_excludes2.excludes.next .def_526))
(define-fun .def_523 () Bool (= call_voiture.meter.next call_voiture.flby.next))
(define-fun .def_521 () Bool (= call_voiture.second.next call_voiture.flby2.next))
(define-fun .def_518 () Bool (= call_voiture.move.next call_voiture.flby3.next))
(define-fun .def_515 () Bool (= call_voiture.ite3.next 0))
(define-fun .def_511 () Bool (not call_voiture.move.next))
(define-fun .def_512 () Bool (or call_voiture.second.next .def_511))
(define-fun .def_514 () Bool (not .def_512))
(define-fun .def_516 () Bool (or .def_514 .def_515))
(define-fun .def_510 () Bool (= call_voiture.ite2.next call_voiture.ite3.next))
(define-fun .def_513 () Bool (or .def_510 .def_512))
(define-fun .def_517 () Bool (and .def_513 .def_516))
(define-fun .def_519 () Bool (and .def_517 .def_518))
(define-fun .def_508 () Bool (= call_voiture.flby6.next call_voiture.time.next))
(define-fun .def_506 () Bool (= call_voiture.flby5.next call_voiture.speed.next))
(define-fun .def_504 () Bool (= call_voiture.flby4.next call_voiture.dist.next))
(define-fun .def_501 () Bool (= call_voiture.dist.next 10))
(define-fun .def_502 () Bool (= call_voiture.bump.next .def_501))
(define-fun .def_498 () Bool (<= 4 call_voiture.time.next))
(define-fun .def_499 () Bool (= call_voiture.stop.next .def_498))
(define-fun .def_495 () Bool (<= 3 call_voiture.speed.next))
(define-fun .def_496 () Bool (= call_voiture.toofast.next .def_495))
(define-fun .def_493 () Bool (= env.next call_Sofar.Sofar.next))
(define-fun .def_490 () Bool (= call_voiture.meter.next meter.next))
(define-fun .def_488 () Bool (= call_voiture.second.next second.next))
(define-fun .def_485 () Bool (= call_voiture.move.next move.next))
(define-fun .def_483 () Bool (= time.next call_voiture.time.next))
(define-fun .def_479 () Bool (= speed.next call_voiture.speed.next))
(define-fun .def_475 () Bool (= dist.next call_voiture.dist.next))
(define-fun .def_472 () Bool (= bump.next call_voiture.bump.next))
(define-fun .def_468 () Bool (= stop.next call_voiture.stop.next))
(define-fun .def_464 () Bool (= toofast.next call_voiture.toofast.next))
(define-fun .def_457 () Bool (and move.next meter.next))
(define-fun .def_458 () Bool (not .def_457))
(define-fun .def_454 () Bool (<= dist.next 9))
(define-fun .def_459 () Bool (or .def_454 .def_458))
(define-fun .def_452 () Bool (not env.next))
(define-fun .def_460 () Bool (or .def_452 .def_459))
(define-fun .def_461 () Bool (= _OK_.next .def_460))
(define-fun .def_465 () Bool (and .def_461 .def_464))
(define-fun .def_469 () Bool (and .def_465 .def_468))
(define-fun .def_473 () Bool (and .def_469 .def_472))
(define-fun .def_476 () Bool (and .def_473 .def_475))
(define-fun .def_480 () Bool (and .def_476 .def_479))
(define-fun .def_484 () Bool (and .def_480 .def_483))
(define-fun .def_486 () Bool (and .def_484 .def_485))
(define-fun .def_489 () Bool (and .def_486 .def_488))
(define-fun .def_491 () Bool (and .def_489 .def_490))
(define-fun .def_494 () Bool (and .def_491 .def_493))
(define-fun .def_497 () Bool (and .def_494 .def_496))
(define-fun .def_500 () Bool (and .def_497 .def_499))
(define-fun .def_503 () Bool (and .def_500 .def_502))
(define-fun .def_505 () Bool (and .def_503 .def_504))
(define-fun .def_507 () Bool (and .def_505 .def_506))
(define-fun .def_509 () Bool (and .def_507 .def_508))
(define-fun .def_520 () Bool (and .def_509 .def_519))
(define-fun .def_522 () Bool (and .def_520 .def_521))
(define-fun .def_524 () Bool (and .def_522 .def_523))
(define-fun .def_528 () Bool (and .def_524 .def_527))
(define-fun .def_530 () Bool (and .def_528 .def_529))
(define-fun .def_369 () Bool (= call_Sofar.Sofar call_Sofar.flby))
(define-fun .def_363 () Bool (and param_s param_m))
(define-fun .def_364 () Bool (not .def_363))
(define-fun .def_366 () Bool (= .def_364 call_excludes2.excludes))
(define-fun .def_359 () Bool (= call_voiture.meter call_voiture.flby))
(define-fun .def_356 () Bool (= call_voiture.second call_voiture.flby2))
(define-fun .def_352 () Bool (= call_voiture.move call_voiture.flby3))
(define-fun .def_348 () Bool (= call_voiture.ite3 0))
(define-fun .def_344 () Bool (not call_voiture.move))
(define-fun .def_345 () Bool (or call_voiture.second .def_344))
(define-fun .def_347 () Bool (not .def_345))
(define-fun .def_349 () Bool (or .def_347 .def_348))
(define-fun .def_343 () Bool (= call_voiture.ite2 call_voiture.ite3))
(define-fun .def_346 () Bool (or .def_343 .def_345))
(define-fun .def_350 () Bool (and .def_346 .def_349))
(define-fun .def_353 () Bool (and .def_350 .def_352))
(define-fun .def_339 () Bool (= call_voiture.time call_voiture.flby6))
(define-fun .def_336 () Bool (= call_voiture.speed call_voiture.flby5))
(define-fun .def_333 () Bool (= call_voiture.dist call_voiture.flby4))
(define-fun .def_329 () Bool (= call_voiture.dist 10))
(define-fun .def_330 () Bool (= call_voiture.bump .def_329))
(define-fun .def_326 () Bool (<= 4 call_voiture.time))
(define-fun .def_327 () Bool (= call_voiture.stop .def_326))
(define-fun .def_323 () Bool (<= 3 call_voiture.speed))
(define-fun .def_324 () Bool (= call_voiture.toofast .def_323))
(define-fun .def_321 () Bool (= env call_Sofar.Sofar))
(define-fun .def_318 () Bool (= meter call_voiture.meter))
(define-fun .def_315 () Bool (= second call_voiture.second))
(define-fun .def_311 () Bool (= move call_voiture.move))
(define-fun .def_308 () Bool (= time call_voiture.time))
(define-fun .def_304 () Bool (= speed call_voiture.speed))
(define-fun .def_300 () Bool (= dist call_voiture.dist))
(define-fun .def_297 () Bool (= bump call_voiture.bump))
(define-fun .def_293 () Bool (= stop call_voiture.stop))
(define-fun .def_289 () Bool (= toofast call_voiture.toofast))
(define-fun .def_282 () Bool (and move meter))
(define-fun .def_283 () Bool (not .def_282))
(define-fun .def_279 () Bool (<= dist 9))
(define-fun .def_284 () Bool (or .def_279 .def_283))
(define-fun .def_277 () Bool (not env))
(define-fun .def_285 () Bool (or .def_277 .def_284))
(define-fun .def_286 () Bool (= _OK_ .def_285))
(define-fun .def_290 () Bool (and .def_286 .def_289))
(define-fun .def_294 () Bool (and .def_290 .def_293))
(define-fun .def_298 () Bool (and .def_294 .def_297))
(define-fun .def_301 () Bool (and .def_298 .def_300))
(define-fun .def_305 () Bool (and .def_301 .def_304))
(define-fun .def_309 () Bool (and .def_305 .def_308))
(define-fun .def_312 () Bool (and .def_309 .def_311))
(define-fun .def_316 () Bool (and .def_312 .def_315))
(define-fun .def_319 () Bool (and .def_316 .def_318))
(define-fun .def_322 () Bool (and .def_319 .def_321))
(define-fun .def_325 () Bool (and .def_322 .def_324))
(define-fun .def_328 () Bool (and .def_325 .def_327))
(define-fun .def_331 () Bool (and .def_328 .def_330))
(define-fun .def_334 () Bool (and .def_331 .def_333))
(define-fun .def_337 () Bool (and .def_334 .def_336))
(define-fun .def_340 () Bool (and .def_337 .def_339))
(define-fun .def_354 () Bool (and .def_340 .def_353))
(define-fun .def_357 () Bool (and .def_354 .def_356))
(define-fun .def_360 () Bool (and .def_357 .def_359))
(define-fun .def_367 () Bool (and .def_360 .def_366))
(define-fun .def_370 () Bool (and .def_367 .def_369))
(define-fun .def_531 () Bool (and .def_370 .def_530))
(define-fun .def_446 () Bool (and call_Sofar.Sofar call_excludes2.excludes.next))
(define-fun .def_448 () Bool (= .def_446 call_Sofar.flby.next))
(define-fun .def_443 () Bool (= call_voiture.ite4.next call_voiture.flby6.next))
(define-fun .def_440 () Bool (= call_voiture.flby5.next call_voiture.ite3.next))
(define-fun .def_436 () Bool (= call_voiture.ite.next call_voiture.flby4.next))
(define-fun .def_430 () Bool (not call_voiture.bump))
(define-fun .def_428 () Bool (not call_voiture.toofast))
(define-fun .def_426 () Bool (not call_voiture.stop))
(define-fun .def_427 () Bool (and call_voiture.move .def_426))
(define-fun .def_429 () Bool (and .def_427 .def_428))
(define-fun .def_431 () Bool (and .def_429 .def_430))
(define-fun .def_433 () Bool (= .def_431 call_voiture.flby3.next))
(define-fun .def_424 () Bool (= param_s.next call_voiture.flby2.next))
(define-fun .def_417 () Bool (not param_s.next))
(define-fun .def_419 () Bool (and .def_417 param_m.next))
(define-fun .def_421 () Bool (= .def_419 call_voiture.flby.next))
(define-fun .def_412 () Bool (not call_voiture.second.next))
(define-fun .def_409 () Int (* (- 1) call_voiture.ite4.next))
(define-fun .def_410 () Int (+ call_voiture.time .def_409))
(define-fun .def_411 () Bool (= .def_410 (- 1)))
(define-fun .def_413 () Bool (or .def_411 .def_412))
(define-fun .def_406 () Bool (= call_voiture.time call_voiture.ite4.next))
(define-fun .def_408 () Bool (or .def_406 call_voiture.second.next))
(define-fun .def_414 () Bool (and .def_408 .def_413))
(define-fun .def_399 () Int (* (- 1) call_voiture.ite.next))
(define-fun .def_400 () Int (+ call_voiture.dist .def_399))
(define-fun .def_401 () Bool (= .def_400 (- 1)))
(define-fun .def_388 () Bool (and call_voiture.move.next call_voiture.meter.next))
(define-fun .def_393 () Bool (not .def_388))
(define-fun .def_402 () Bool (or .def_393 .def_401))
(define-fun .def_397 () Bool (= call_voiture.dist call_voiture.ite.next))
(define-fun .def_398 () Bool (or .def_388 .def_397))
(define-fun .def_403 () Bool (and .def_398 .def_402))
(define-fun .def_390 () Int (* (- 1) call_voiture.ite2.next))
(define-fun .def_391 () Int (+ call_voiture.speed .def_390))
(define-fun .def_392 () Bool (= .def_391 2))
(define-fun .def_394 () Bool (or .def_392 .def_393))
(define-fun .def_385 () Bool (= call_voiture.speed call_voiture.ite2.next))
(define-fun .def_389 () Bool (or .def_385 .def_388))
(define-fun .def_395 () Bool (and .def_389 .def_394))
(define-fun .def_404 () Bool (and .def_395 .def_403))
(define-fun .def_415 () Bool (and .def_404 .def_414))
(define-fun .def_422 () Bool (and .def_415 .def_421))
(define-fun .def_425 () Bool (and .def_422 .def_424))
(define-fun .def_434 () Bool (and .def_425 .def_433))
(define-fun .def_437 () Bool (and .def_434 .def_436))
(define-fun .def_441 () Bool (and .def_437 .def_440))
(define-fun .def_444 () Bool (and .def_441 .def_443))
(define-fun .def_449 () Bool (and .def_444 .def_448))
(define-fun .def_532 () Bool (and .def_449 .def_531))
(assert .def_532)
